N := 64
c := 1e-9

setgridsize(N, N, 1)
setcellsize(c, c, c)

setgeom(circle(N*c))
defregion(1, xrange(-inf, 0))
defregion(2, xrange( 0, inf))

tol := 1e-6

m = uniform(0, 1, 0)

expectv("m", m.average(), vector(0, 1, 0), tol)

expect("mx", m.comp(0).average(), 0, tol)
expect("my", m.comp(1).average(), 1, tol)
expect("mz", m.comp(2).average(), 0, tol)

expect("m1x", m.region(1).average()[0], 0, tol)
expect("m1y", m.region(1).average()[1], 1*pi/4, tol)
expect("m1z", m.region(1).average()[2], 0, tol)
