setgridsize(4, 3, 1)
setcellsize(1, 1, 1)

m = uniform(0,0,0)

//m.setCell(0,0,0,  1.,2.,3.)
//m.setCell(1,0,0,  1.,2.,3.)
//m.setCell(2,0,0,  1.,2.,3.)
//m.setCell(3,0,0,  1.,2.,3.)
//m.setCell(0,1,0,  1.,2.,3.)
//m.setCell(1,1,0,  1.,2.,3.)
//m.setCell(2,1,0,  1.,2.,3.)
//m.setCell(3,1,0,  1.,2.,3.)

Msat = 1/mu0

//print("m", m) // OK

save(B_demag)
