
setgridsize(128, 64, 2)
setcellsize(1e-9, 2e-9, 1e-9)

Msat = 800e3
Aex = 13e-12
m  = vortex(-1, -1).transl(20e-9, 30e-9, 0)

pos := ext_corepos.getvec()
expect("coreX", pos[0], 20e-9, 0.1e-9)
expect("coreY", pos[1], 30e-9, 0.1e-9)

m  = vortex(1, 1)
alpha = 3
table.add(ext_corepos)
steps(100)

pos = ext_corepos.getvec()
expect("coreX", pos[0], 0e-9, 0.1e-9)
expect("coreY", pos[1], 0e-9, 0.1e-9)
