/*
	Test custom field implementation.
	Like uniaxialanisotropy.mx3, but with custom anisotropy implementation.
*/

setgridsize(64, 64, 1)
setcellsize(4e-9, 4e-9, 2e-9)

Aex   = 13e-12
alpha = 1
M     = uniform(1, 1, 0)

// Custom anisotropy, easy, in-plane
Msat  = 1100e3
K := 0.5e6
u := ConstVector(1, 0, 0)

prefactor := Const( (2 * K) / (Msat.Average()))
MyAnis := Mul(prefactor, Mul( Dot(u, m), u))
AddFieldTerm(MyAnis)

B_ext = vector(0, 0.00, 0)
relax()
expect("my", m.average()[1], 0.000, 1e-3)

B_ext = vector(0, 0.01, 0)
relax()
expect("my", m.average()[1], 0.011, 1e-3)

B_ext = vector(0, 0.03, 0)
relax()
expect("my", m.average()[1], 0.033, 1e-3)

B_ext = vector(0, 0.10, 0)
relax()
expect("my", m.average()[1], 0.110, 1e-3)

B_ext = vector(0, 0.30, 0)
relax()
expect("my", m.average()[1], 0.331, 1e-3)

