N := 64
setgridsize(N, N, 1)
c := 1.15e-9 / 2
d := 1.15e-9
setcellsize(c, c, d)
maxerr = 1e-5

Aex   = 20e-12
Ku1   = 5.9e5
Msat  = 6e5
AnisU = vector(0, 0, 1)
Dex   = vector(3e-3, 3e-3, 0)
m     = uniform(1, 1, 1)
alpha = 0.01

// output
tableadd(E_total)
tableadd(E_exch)
tableautosave(.1e-12)

run(1e-9)
