setgridsize(128, 32, 1)
setcellsize(500e-9/128, 125e-9/32, 3e-9)

Aex   = 13e-12
Msat  = 800e3
alpha = 0.02
m  = uniform(0, 1, 0)

defRegion(0, xrange(-inf, 0))
defRegion(1, xrange(0, inf))
B_ext.SetRegion(0, vector(.1, 0, 0))
B_ext.SetRegion(1, vector(0, .1, 0))

dotty := DotProduct(M, B_ext)
TOL := 1e-6
expect("dot product", dotty.average(), 0.05, TOL)

tableadd(dotty)
save(dotty)
tablesave()

