/*
	2D Geometry test.
*/

N := 128
setgridsize(N, N, 1)
setcellsize(1e-9, 1e-9, 1e-9)
d := 1e-9 * N  

m = uniform(1, 0, 0)
expect("m", average(m)[0], 1, 1e-7)

setgeom(circle(d))
expect("m", average(m)[0], pi/4, 1e-2) // cylinder cut away part of m

m = uniform(-1, 0, 0)
expect("m", average(m)[0], -pi/4, 1e-2) // re-initializing m still honours geometry

setgeom(cylinder(d, d).inverse())
m = uniform(0, 1, 0)
expect("m", average(m)[1], 1-pi/4, 1e-2) 
