/*
	Test I/O.
*/

setgridsize(50, 25, 1)
setcellsize(1e-9, 1e-9, 1e-9)

m = uniform(1, 0, 0)

setgeom(circle(50e-9))

msat  = 800e-3
Aex   = 12e-13
anisU = vector(1, 0, 0)
Ku1   = 500e3

m.loadfile("testdata/m000000.dump")
saveas(m, "m")
saveas(B_demag, "B_demag")
saveas(B_exch, "B_exch")
saveas(B_anis, "B_anis")
saveas(regions, "regions")

fprintln("testfile", "m", average(m))
