/*
	Test I/O.
*/

setgridsize(50, 25, 2)
setcellsize(1e-9, 1e-9, 1e-9)

m = uniform(1, 0, 0)

setgeom(cylinder(50e-9, 50e-9))

msat  = 800e-3
aex   = 12e-13
anisU = vector(1, 0, 0)
Ku1   = 500e3
dmi   = 1e-5

m.loadfile("testdata/m000000.dump")
saveas(m, "m")
saveas(B_demag, "B_demag")
saveas(B_exch, "B_exch")
saveas(B_anis, "B_anis")
saveas(regions, "regions")
