setgridsize(512, 128, 1)

c := 4e-9
setcellsize(c, c, c)

Msat = 860e3
Aex = 13e-12

m = uniform(1,0,0) 

ext_makegrains(1,32, 200)

save(regions)
