setgridsize(512, 128, 1)

c := 4e-9
setcellsize(c, c, c)

m = uniform(1,0,0) 
randSeed(0)

ext_makegrains(40e-9, 255, 0)


