Nx := 400
Ny := 400
c := 2e-9

setgridsize(Nx, Ny, 1)
setcellsize(c, c, c)

Msat = 1/mu0

m.setcell(0, 0, 0, 1., 0., 0.)

MFMLift = 50e-9

print(MFM)
