setgridsize(4, 3, 1)
setcellsize(5e-9, 5e-9, 5e-9)

m = uniform(0,0,1)

MFMLift = 60e-9
Msat = 1/mu0

print("m", m) 
print("MFM", MFM)

