// reported by Louis Damien

setgridsize(64, 64, 1)
setcellsize(1.5625e-9, 1.5625e-9, 2e-9)
/* Input parameters */
Msat  = 1700e3        // Saturation magnetization in A/m
Aex   = 21e-12        // Exchange stiffness in J/m
alpha = 0.5          // Gilbert damping constant
// Either uniaxial
 // anisU = vector(1,1,0) // Uniaxial anisotropy axis
 // Ku1   = 48e3         // Uniaxial anisotropy in J/m3
// or cubic anisotropy
  AnisC1 = vector(1,0,0)
  AnisC2 = vector(0,1,0)
  Kc1 = 48e3

setgeom( Circle(100e-9) )
tableadd(E_anis)
for i:=0; i<=360; i++{
  angle := i*pi/180
  m=uniform(sin(angle), cos(angle), 0)
  tablesave()
}



