/* 
	Test rk4 solver with temperature
*/

c := 10e-9
setcellsize(c, c, c)
setgridsize(512, 512, 1)

Msat  = 1e6 
Aex   = 0 
alpha = 0.1 
AnisU = vector(0, 0, 1)
m     = uniform(0, 0, 1)
fixdt = 1e-12
Temp  = 100              
Ku1   = 1e4              
enabledemag = false
setsolver(4)

run(10e-9)               // reach equilibrium
run(3e-8)
expectv("m", m.average(), vector(-0.000, -0.000, 0.89663), 1e-3)
