// Make sure all table quantities are recognized

setgridsize(64, 32, 2)
c := 4e-9
setcellsize(c, c, c)

msat  = 800e3
aex   = 13e-12
alpha = 1
m = vortex(1, 1)
b_ext = vector(.01, 0, 0)

table.add(e_total)
table.add(e_zeeman)
table.add(e_demag)
table.add(e_exch)
table.add(e_anis)

table.add(maxtorque)

table.add(b_ext)
table.add(msat)
table.add(aex)
table.add(alpha)

table.autosave(.0001e-12)
steps(10)

