/* 
	Test time-dependent vector parameter with regions
*/

c:=4e-9
setgridsize(32, 32, 1)
setcellsize(c, c, c)

Msat=860e3
Aex=13e-12
alpha=0.2
m=uniform(1, 1, 0)
setgeom(circle(32*4e-9))

f := 1e9
A := 0.01
defRegion(1, xrange(-inf, inf))
B_ext.setRegion(0, vector(0*t, 0, 0))
B_ext.setRegion(1, vector(A*sin(2*pi*f*t), A*cos(2*pi*f*t), 0))
B_ext.setRegion(2, vector(0*t, 0, 0))

run(0.2e-9)

TOL := 1e-5
expectv("m", m.average(), vector(0.6773565132629695, 0.7201919931496306, 0.02121575360227688), TOL)
