ext_EnableUnsafe()

SetGridSize(32, 32, 1)
c := 1e-9
SetCellSize(c, c, c)

defregion(1, xrange(-inf, 0))
defregion(2, xrange(0, inf))


Msat  = 1100e3
Aex   = 16e-12
alpha = 3
AnisU = vector(0, 0, 1)
Ku1   = 1.27E6
Dind.setRegion(1, 0.1e-3)
Dind.setRegion(2, -0.1e-3)

m = TwoDomain(0, 0, -1, 1, 1, 0, 0, 0, 1) // down-up domains with wall between Bloch and Néél type

defregion(0, xrange(-inf, 0))
defregion(1, xrange(0, inf))

Msat.SetRegion(1, 1e6)
Msat.SetRegion(0, 2e6)

tableAdd(E_total)

steps(1)


