ext_EnableUnsafe()

SetGridSize(32, 32, 1)
c := 1e-9
SetCellSize(c, c, c)


Msat  = 1100e3
Aex   = 16e-12
alpha = 3
AnisU = vector(0, 0, 1)
Ku1   = 1.27E6
Dind   = 0.1e-3 // J/m2.

m = TwoDomain(0, 0, -1, 1, 1, 0, 0, 0, 1) // down-up domains with wall between Bloch and Néél type

defregion(0, xrange(-inf, 0))
defregion(1, xrange(0, inf))

Msat.SetRegion(1, 1e6)
Msat.SetRegion(0, 2e6)

steps(1)


