setgridsize(1, 1, 1)
setcellsize(3e-9, 3e-9, 3e-9)

Msat = 800e6
Aex = 13e-12
m = uniform(1,1,1)
enabledemag = false

tableadd(B_ext)

f1 := 1e9
f2 := 0 // 0.75e9
A1 := 0.1
A2 := 0.05
B_ext = vector(A1*sin(2*pi*f1*t) + A2*cos(2*pi*f2*t), 0, 0)

tableAutoSave(10e-12)
run(50e-9)
